p edge 320 1311
c 6396
e 0 194 1 0
e 0 129 31 1
e 0 128 1 2
e 0 40 1 3
e 0 10 22 4
e 0 37 2 5
e 0 55 28 6
e 0 187 1 7
e 0 216 1 8
e 1 210 1 10
e 1 127 2 11
e 1 233 1 13
e 1 44 1 14
e 1 224 3 15
e 2 126 1 20
e 2 249 2 23
e 3 146 1 25
e 4 45 1 28
e 4 223 1 29
e 4 275 1 30
e 4 46 2 33
e 4 148 1 34
e 4 228 1 35
e 4 307 1 36
e 5 137 1 37
e 5 222 1 38
e 5 176 1 39
e 6 300 35 41
e 6 229 8 42
e 6 161 15 43
e 6 317 37 45
e 6 287 1 46
e 6 230 42 47
e 6 10 5 48
e 6 142 38 50
e 7 101 1 51
e 7 92 15 52
e 7 212 2 54
e 8 288 1 58
e 8 142 46 59
e 9 17 1 61
e 9 230 2 66
e 10 142 23 67
e 10 73 45 68
e 10 139 10 69
e 10 41 47 70
e 10 76 1 71
e 10 197 43 73
e 10 288 36 74
e 11 311 2 75
e 11 242 1 77
e 11 189 3 78
e 11 47 1 79
e 11 161 2 80
e 11 182 1 81
e 11 315 1 82
e 12 170 1 83
e 12 50 1 84
e 12 283 2 86
e 12 220 1 88
e 12 221 2 89
e 13 201 1 91
e 13 242 1 96
e 14 268 2 98
e 14 201 1 99
e 14 316 1 100
e 14 51 41 104
e 14 212 1 108
e 14 218 1 109
e 14 245 1 110
e 15 305 2 112
e 15 181 1 113
e 15 73 1 114
e 15 104 2 115
e 15 39 1 116
e 15 91 1 117
e 15 145 2 118
e 15 293 2 120
e 15 301 2 121
e 16 168 1 122
e 16 41 1 124
e 16 85 1 125
e 16 64 1 126
e 16 133 13 127
e 16 220 2 128
e 17 85 1 129
e 17 235 2 130
e 17 176 1 131
e 17 243 1 132
e 17 120 1 133
e 17 237 2 134
e 18 191 1 137
e 19 133 33 144
e 19 172 24 145
e 19 252 2 146
e 20 293 1 151
e 20 146 1 152
e 20 263 1 155
e 21 229 1 157
e 21 91 1 158
e 21 136 1 159
e 21 239 1 160
e 21 223 1 163
e 21 290 1 164
e 22 166 1 165
e 22 94 3 166
e 22 315 1 167
e 22 127 2 169
e 22 144 2 170
e 22 151 1 171
e 22 276 2 172
e 22 307 2 173
e 23 245 1 174
e 23 242 3 175
e 23 317 5 176
e 24 32 27 179
e 24 41 7 180
e 24 134 39 181
e 24 233 28 182
e 24 129 43 183
e 24 269 24 184
e 24 89 13 185
e 24 206 49 187
e 24 274 27 188
e 25 80 10 189
e 25 61 21 190
e 25 146 2 192
e 25 66 23 193
e 25 67 5 194
e 25 190 17 197
e 25 197 34 198
e 25 218 22 199
e 25 227 14 200
e 25 253 21 201
e 26 270 1 202
e 26 145 1 207
e 26 312 1 208
e 27 192 4 209
e 27 63 44 210
e 27 73 27 211
e 27 68 2 212
e 27 179 42 214
e 27 273 15 216
e 28 102 1 218
e 28 122 1 219
e 28 61 1 222
e 29 252 1 225
e 29 239 2 230
e 30 114 17 232
e 30 307 11 233
e 30 267 10 234
e 30 103 23 236
e 30 133 36 237
e 30 230 8 238
e 30 232 20 239
e 30 194 15 240
e 30 281 12 241
e 31 209 1 243
e 32 202 1 247
e 32 37 1 248
e 32 300 1 249
e 32 52 1 250
e 32 82 1 251
e 32 138 1 252
e 33 66 1 254
e 33 178 1 255
e 33 306 1 256
e 33 125 1 257
e 34 159 1 258
e 34 92 28 262
e 34 124 1 265
e 34 180 36 266
e 35 257 1 274
e 35 122 1 275
e 36 52 1 276
e 36 142 30 278
e 36 212 2 281
e 36 243 3 283
e 37 235 2 284
e 37 178 2 285
e 37 290 2 286
e 38 204 2 288
e 38 260 1 289
e 38 120 3 290
e 38 162 1 291
e 39 233 2 293
e 39 49 23 296
e 39 114 2 297
e 39 229 1 298
e 40 114 1 301
e 40 220 1 302
e 40 116 1 303
e 40 99 1 304
e 40 52 1 305
e 40 73 1 306
e 40 136 1 307
e 40 203 25 308
e 40 215 1 309
e 40 225 1 310
e 40 231 2 311
e 40 245 1 312
e 40 270 1 314
e 41 163 1 315
e 41 244 43 316
e 41 79 2 318
e 41 252 1 320
e 41 261 10 321
e 42 72 1 323
e 42 122 1 324
e 43 72 1 332
e 43 91 1 333
e 44 79 2 335
e 44 198 2 336
e 44 268 1 337
e 44 61 1 338
e 44 89 13 339
e 45 201 1 343
e 45 84 1 345
e 45 78 2 347
e 45 282 1 348
e 46 209 1 352
e 47 123 1 355
e 47 288 1 358
e 48 293 2 362
e 48 67 1 364
e 48 96 1 365
e 48 202 1 366
e 49 109 48 368
e 49 55 37 370
e 49 206 21 371
e 49 180 34 372
e 49 158 8 373
e 49 110 36 374
e 50 83 3 376
e 50 222 1 377
e 50 71 2 378
e 50 154 1 379
e 50 181 2 380
e 50 224 1 381
e 51 192 16 382
e 51 123 45 383
e 51 307 33 384
e 51 254 18 385
e 51 206 43 386
e 51 261 27 387
e 51 89 18 388
e 52 237 1 390
e 52 115 38 391
e 52 101 1 392
e 52 127 1 394
e 52 153 1 395
e 52 198 1 396
e 52 260 2 397
e 52 276 1 398
e 53 268 1 399
e 53 155 1 400
e 53 82 1 403
e 53 125 1 404
e 53 182 1 406
e 53 185 1 407
e 54 160 1 410
e 54 290 1 415
e 54 291 1 416
e 55 291 32 417
e 55 59 8 418
e 55 280 42 420
e 55 232 40 421
e 55 104 49 422
e 55 230 17 423
e 56 297 1 425
e 56 75 1 427
e 56 229 1 430
e 56 249 2 431
e 57 177 1 432
e 57 75 2 436
e 57 85 2 437
e 57 195 1 438
e 57 230 36 439
e 57 289 1 442
e 57 297 1 443
e 58 134 1 444
e 58 203 41 446
e 58 81 1 448
e 58 167 33 450
e 59 155 2 455
e 60 257 2 459
e 60 183 1 460
e 60 197 19 461
e 60 202 1 462
e 60 92 13 463
e 60 134 1 464
e 60 145 1 466
e 60 149 1 467
e 60 196 2 468
e 61 284 1 470
e 61 65 1 472
e 61 137 1 473
e 61 200 1 474
e 62 297 1 475
e 62 240 1 476
e 62 201 1 477
e 62 67 1 478
e 62 221 1 480
e 64 282 2 486
e 64 138 2 487
e 64 66 1 488
e 64 238 1 489
e 64 264 1 490
e 65 270 1 491
e 65 89 26 492
e 65 262 1 495
e 66 229 1 497
e 66 145 1 498
e 66 82 3 499
e 67 288 1 502
e 67 277 1 504
e 67 317 2 505
e 68 192 1 506
e 69 309 1 509
e 69 243 1 514
e 69 301 1 516
e 70 123 1 517
e 70 113 2 518
e 70 105 1 519
e 70 183 2 520
e 70 237 1 522
e 71 155 1 525
e 72 206 23 526
e 72 283 1 527
e 72 210 2 529
e 72 232 23 530
e 72 263 1 531
e 73 124 1 533
e 73 187 1 536
e 74 288 1 537
e 74 121 1 538
e 74 293 1 539
e 74 201 2 540
e 74 146 1 542
e 74 160 1 543
e 74 199 1 544
e 74 209 2 545
e 75 83 2 546
e 75 291 1 547
e 75 248 2 548
e 75 240 1 550
e 77 281 31 556
e 77 202 2 557
e 77 193 1 558
e 78 272 2 563
e 78 161 1 564
e 78 171 1 566
e 78 187 1 567
e 79 207 1 569
e 79 98 2 570
e 79 217 1 572
e 79 263 1 573
e 79 318 1 574
e 80 261 44 577
e 80 173 1 578
e 80 262 1 579
e 81 254 19 581
e 81 300 1 582
e 82 165 1 584
e 82 147 35 586
e 82 154 1 587
e 82 159 1 588
e 82 279 1 589
e 82 309 1 590
e 82 313 1 591
e 83 288 1 592
e 83 132 2 593
e 83 202 1 595
e 84 304 2 597
e 84 299 1 598
e 84 275 1 599
e 84 185 1 600
e 84 113 3 601
e 84 207 1 603
e 85 293 2 605
e 85 152 1 606
e 85 315 1 608
e 86 239 2 610
e 86 254 10 611
e 86 191 2 613
e 86 208 1 614
e 87 172 10 619
e 87 316 1 621
e 88 186 1 622
e 88 274 2 623
e 88 182 1 624
e 88 268 1 626
e 89 108 44 627
e 89 316 18 628
e 89 90 33 629
e 89 150 15 630
e 89 223 30 631
e 89 267 5 632
e 90 189 12 633
e 90 98 3 634
e 90 307 26 635
e 90 295 19 636
e 90 147 49 637
e 90 167 34 638
e 90 188 8 639
e 91 294 1 640
e 91 109 16 641
e 91 135 1 643
e 92 305 40 645
e 92 96 11 646
e 92 160 49 648
e 93 119 1 651
e 93 155 1 652
e 93 210 1 653
e 94 238 1 656
e 94 170 2 657
e 94 258 2 658
e 94 315 1 659
e 94 255 1 660
e 95 300 1 662
e 95 137 1 664
e 95 186 1 665
e 95 213 1 666
e 95 232 2 667
e 96 262 1 668
e 96 130 1 669
e 96 205 1 670
e 96 276 1 671
e 98 259 1 676
e 98 300 1 677
e 98 212 1 678
e 98 107 1 679
e 98 156 1 680
e 98 171 1 681
e 98 191 1 683
e 98 312 1 684
e 99 223 1 685
e 99 228 2 688
e 100 123 1 694
e 100 208 1 698
e 101 130 1 702
e 101 197 33 704
e 101 210 1 706
e 102 189 1 708
e 102 129 29 709
e 102 115 3 710
e 102 211 1 711
e 102 168 1 712
e 102 241 1 713
e 102 299 1 715
e 103 252 12 716
e 103 110 39 717
e 103 217 15 718
e 103 317 21 719
e 103 147 45 721
e 103 306 19 722
e 103 311 45 723
e 104 211 2 724
e 104 298 37 725
e 104 123 1 727
e 104 162 1 728
e 104 281 20 729
e 105 289 1 730
e 105 224 1 731
e 105 182 1 735
e 105 291 1 737
e 106 134 1 743
e 106 235 1 747
e 108 218 1 750
e 108 291 2 752
e 108 123 1 753
e 108 249 2 756
e 109 183 1 757
e 109 205 46 758
e 109 143 6 759
e 109 151 14 761
e 109 274 24 762
e 109 297 38 763
e 110 173 3 765
e 111 163 1 773
e 111 234 1 774
e 112 290 1 777
e 112 234 2 781
e 113 298 27 782
e 113 316 2 784
e 113 121 2 786
e 113 223 1 787
e 114 256 1 788
e 114 133 20 790
e 114 281 2 791
e 115 145 25 792
e 115 232 31 793
e 115 142 49 796
e 115 147 19 797
e 115 117 43 798
e 115 167 37 799
e 117 301 1 802
e 117 214 2 804
e 117 169 1 805
e 118 158 35 807
e 118 198 1 808
e 118 125 2 810
e 118 223 1 813
e 118 252 2 814
e 119 270 3 816
e 119 203 22 817
e 119 205 1 818
e 119 292 1 819
e 119 315 1 820
e 120 300 1 823
e 121 309 3 824
e 121 122 2 825
e 121 165 2 826
e 121 265 1 827
e 121 284 2 828
e 121 295 1 829
e 121 300 1 830
e 122 177 1 831
e 122 197 17 832
e 122 149 1 834
e 122 159 1 835
e 123 261 41 837
e 124 280 10 838
e 124 157 1 839
e 124 148 1 840
e 124 204 1 841
e 124 226 1 842
e 124 255 1 843
e 124 291 1 844
e 125 237 1 845
e 125 192 2 846
e 125 242 1 847
e 125 270 1 848
e 126 158 3 851
e 126 215 1 852
e 127 139 2 854
e 127 178 1 855
e 127 242 1 857
e 128 224 1 858
e 128 211 1 859
e 128 130 1 860
e 128 229 1 862
e 128 256 1 863
e 129 295 4 864
e 129 247 17 865
e 129 221 18 866
e 130 293 1 869
e 130 232 37 870
e 130 206 10 871
e 130 277 1 872
e 131 249 2 873
e 131 282 1 874
e 132 139 1 875
e 132 305 2 876
e 132 263 1 877
e 132 204 2 878
e 132 302 2 879
e 133 186 7 880
e 133 236 45 881
e 133 151 26 882
e 134 305 2 885
e 134 190 1 886
e 134 254 2 887
e 134 287 10 888
e 136 294 1 890
e 136 256 1 891
e 136 191 1 892
e 136 207 1 893
e 136 274 1 894
e 136 297 1 895
e 136 298 25 896
e 137 230 32 897
e 137 239 1 900
e 137 281 35 901
e 137 309 1 902
e 138 219 1 903
e 138 152 1 905
e 139 201 2 908
e 139 233 3 909
e 141 242 1 915
e 141 180 11 916
e 141 142 21 917
e 142 187 22 919
e 142 173 36 920
e 143 306 1 922
e 143 189 2 924
e 144 184 1 929
e 144 252 3 930
e 145 172 34 932
e 145 177 2 933
e 145 217 1 934
e 145 231 1 935
e 145 293 2 936
e 145 305 2 937
e 146 162 1 938
e 146 165 1 939
e 146 156 1 940
e 146 164 1 941
e 146 179 2 942
e 146 238 1 943
e 146 288 1 945
e 147 202 43 946
e 147 244 6 948
e 147 173 38 949
e 147 228 9 950
e 148 235 1 952
e 148 269 5 955
e 149 257 2 957
e 149 270 1 958
e 150 160 1 960
e 152 280 25 965
e 152 209 3 967
e 153 307 1 970
e 153 227 1 971
e 153 193 1 972
e 153 258 1 973
e 153 314 1 974
e 154 193 1 977
e 155 246 1 979
e 155 280 20 980
e 155 287 29 981
e 155 171 1 982
e 155 183 2 983
e 155 264 1 984
e 155 315 1 985
e 156 228 1 986
e 156 249 1 987
e 156 303 1 988
e 156 179 1 989
e 156 214 3 990
e 156 254 37 991
e 156 257 1 992
e 156 278 1 993
e 157 214 1 995
e 158 285 14 999
e 158 186 38 1001
e 158 291 35 1002
e 159 244 48 1003
e 160 238 1 1006
e 160 244 17 1007
e 161 250 1 1011
e 161 262 2 1012
e 163 236 2 1015
e 163 301 1 1016
e 163 275 1 1017
e 164 280 36 1020
e 164 197 19 1021
e 165 228 1 1022
e 165 262 1 1023
e 166 242 1 1026
e 166 300 1 1028
e 166 309 1 1029
e 167 309 11 1032
e 167 172 34 1033
e 167 254 3 1034
e 167 173 44 1035
e 167 300 47 1036
e 168 290 2 1037
e 168 229 1 1038
e 170 309 1 1041
e 171 262 1 1047
e 172 271 31 1049
e 172 193 39 1051
e 172 197 11 1052
e 173 273 16 1053
e 174 305 3 1054
e 174 179 1 1055
e 174 271 1 1056
e 174 186 1 1057
e 174 222 1 1058
e 174 283 1 1059
e 174 310 1 1060
e 175 242 1 1061
e 175 191 1 1062
e 177 313 2 1066
e 177 240 1 1067
e 177 244 30 1068
e 177 284 1 1069
e 178 246 1 1071
e 178 190 1 1072
e 178 232 23 1073
e 179 240 1 1074
e 180 300 16 1076
e 180 196 49 1077
e 180 211 1 1078
e 180 307 12 1079
e 181 296 1 1082
e 182 305 1 1083
e 183 184 2 1084
e 184 212 1 1085
e 184 315 1 1086
e 184 187 2 1087
e 184 271 2 1088
e 184 303 2 1089
e 184 311 2 1090
e 185 291 1 1092
e 185 293 2 1093
e 185 216 1 1094
e 185 318 1 1095
e 186 228 2 1096
e 186 201 1 1097
e 187 285 1 1099
e 187 287 4 1100
e 187 307 1 1101
e 189 239 2 1105
e 190 234 1 1107
e 191 212 2 1111
e 192 232 8 1113
e 193 272 1 1114
e 194 250 1 1116
e 194 245 1 1117
e 194 235 1 1119
e 195 250 1 1121
e 195 301 1 1122
e 195 225 1 1123
e 195 310 3 1124
e 197 205 8 1128
e 197 281 37 1129
e 197 273 14 1130
e 198 225 1 1131
e 198 223 1 1132
e 198 275 1 1133
e 198 294 1 1134
e 200 269 24 1136
e 201 241 1 1139
e 201 236 1 1140
e 201 257 2 1142
e 201 295 1 1143
e 202 317 15 1144
e 202 277 1 1145
e 202 259 1 1146
e 203 268 13 1148
e 203 227 22 1149
e 203 231 20 1150
e 203 258 9 1151
e 203 294 8 1152
e 203 308 10 1153
e 204 240 1 1154
e 205 309 1 1156
e 205 280 2 1157
e 206 300 30 1159
e 206 230 33 1160
e 207 214 1 1161
e 208 243 2 1163
e 208 231 1 1164
e 210 299 1 1168
e 210 275 1 1169
e 211 239 2 1171
e 212 312 2 1174
e 212 235 1 1175
e 213 233 1 1178
e 213 301 1 1179
e 214 224 2 1180
e 214 245 2 1181
e 215 243 1 1183
e 215 268 1 1184
e 216 227 1 1186
e 216 219 1 1187
e 216 247 1 1188
e 216 269 12 1189
e 218 239 2 1191
e 219 239 2 1192
e 219 309 1 1193
e 220 261 19 1195
e 221 250 1 1197
e 223 259 1 1199
e 224 260 1 1201
e 224 261 15 1202
e 224 265 1 1203
e 224 288 1 1204
e 225 263 1 1206
e 227 289 2 1209
e 227 281 21 1210
e 227 249 1 1211
e 227 298 11 1212
e 228 256 1 1214
e 229 253 1 1215
e 229 312 1 1216
e 230 248 4 1219
e 231 245 1 1220
e 231 250 2 1221
e 232 282 17 1222
e 232 294 32 1223
e 233 303 1 1224
e 233 234 1 1225
e 234 292 2 1226
e 234 301 1 1227
e 236 242 1 1229
e 237 300 1 1232
e 239 302 2 1236
e 242 269 3 1240
e 242 306 1 1241
e 242 311 1 1242
e 243 273 34 1244
e 245 270 1 1245
e 247 301 1 1248
e 248 283 1 1250
e 250 282 2 1252
e 251 288 1 1253
e 252 299 2 1254
e 252 318 1 1255
e 253 288 1 1257
e 254 274 11 1259
e 254 261 12 1260
e 254 273 7 1261
e 255 316 1 1264
e 260 287 49 1269
e 262 297 1 1271
e 262 302 1 1272
e 262 308 1 1273
e 266 293 2 1277
e 266 268 1 1278
e 268 286 49 1279
e 269 317 8 1280
e 270 304 1 1281
e 270 305 2 1282
e 270 311 2 1283
e 272 290 2 1284
e 274 290 1 1287
e 275 293 1 1288
e 277 283 2 1289
e 282 289 2 1293
e 284 289 1 1294
e 286 300 28 1295
e 287 299 45 1298
e 289 311 2 1299
e 295 309 1 1303
e 296 306 1 1304
e 296 298 32 1305
e 304 309 1 1306
e 306 317 11 1308
e 312 313 1 1309
e 314 316 1 1310
